10
2147483647 35 98 45 75 28 78 5 9 80 
35 2147483647 27 86 5 86 65 45 5 50 
98 27 2147483647 81 66 10 22 13 84 5 
45 86 81 2147483647 59 52 35 91 77 80 
75 5 66 59 2147483647 15 2 46 14 79 
28 86 10 52 15 2147483647 34 40 50 78 
78 65 22 35 2 34 2147483647 35 94 50 
5 45 13 91 46 40 35 2147483647 19 51 
9 5 84 77 14 50 94 19 2147483647 11 
80 50 5 80 79 78 50 51 11 2147483647 
